p tw 20 51
e 0 7
e 0 12
e 0 14
e 0 17
e 0 18
e 0 19
e 1 4
e 1 6
e 1 8
e 1 9
e 1 11
e 1 12
e 1 15
e 1 19
e 2 7
e 2 9
e 2 10
e 2 11
e 2 14
e 3 7
e 3 9
e 3 12
e 3 16
e 3 17
e 3 18
e 4 5
e 4 13
e 4 17
e 4 19
e 5 14
e 5 15
e 5 16
e 5 19
e 6 7
e 6 11
e 6 16
e 6 18
e 7 9
e 7 14
e 7 16
e 7 18
e 8 16
e 8 18
e 9 15
e 9 16
e 10 18
e 11 14
e 11 18
e 12 13
e 15 16
e 17 18
